c ---- [ banner ] ------------------------------------------------------------
c
c Kissat SAT Solver
c 
c Copyright (c) 2021-2024 Armin Biere University of Freiburg
c Copyright (c) 2019-2021 Armin Biere Johannes Kepler University Linz
c 
c Version 4.0.1 43f02cf3e992cb44653b35e5cb26f93281552ae0
c gcc (Ubuntu 13.2.0-23ubuntu4) 13.2.0 -W -Wall -O3 -DNDEBUG
c Thu Sep 12 12:27:46 CEST 2024 Linux abryzen9 6.8.0-41-generic x86_64
c
c ---- [ parsing ] -----------------------------------------------------------
c
c opened and reading DIMACS file:
c
c   /data/artifact/AMulet2.0_artifact/exp4/cnf_compress2rs_64/64_64_U1_DT_RC_Multgen_compress2rs.cnf
c
c parsed 'p cnf 34656 135326' header
c closing input after reading 2633095 bytes (3 MB)
c finished parsing after 0.02 seconds
c
c ---- [ options ] -----------------------------------------------------------
c
c --stable=0                       (different from default '1')
c
c ---- [ solving ] -----------------------------------------------------------
c
c  seconds switched rate     size/glue tier1  binary           remaining
c         MB reductions conflicts size  tier2     irredundant
c          level restarts redundant glue  trail           variables
c
c *  0.02 10 0 0 0  0 0   0   0 0.0 0 0 0 0 0% 27493 107831 34653 100%
c (  0.03 12 0 0 0  0 0   0   0 0.0 0 0 0 0 0% 27493 107831 34653 100%
c .  0.04 13 0 0 0  0 0   0   0 0.0 0 0 0 0 0% 27489 107831 34653 100%
c c  0.09 21 0 0 0  0 0   0   0 0.0 0 0 0 0 0% 34393 94023 31201 90%
c d  0.09 21 0 0 0  0 0   0   0 0.0 0 0 0 0 0% 27489 94023 31201 90%
c =  0.13 21 0 0 0  0 0   0   0 0.0 0 0 0 0 0% 27985 94023 30953 89%
c d  0.14 21 0 0 0  0 0   0   0 0.0 0 0 0 0 0% 27489 94023 30953 89%
c f  0.19 19 0 0 0  0 0   0   0 0.0 0 0 0 0 0% 30284 89551 32630 94%
c e  0.29 26 0 0 0  0 0   0   0 0.0 0 0 0 0 0% 8468 103397 21611 62%
c )  0.29 26 0 0 0  0 0   0   0 0.0 0 0 0 0 0% 8468 103397 21611 62%
c {  0.31 28 0 0 0  0 0   0   0 0.0 0 0 2 6 0% 8468 103397 21611 62%
c -  0.65 28 275 0 1 190 39 1000 785 5.0 36 7 4 12 26% 8483 103397 21611 62%
c -  0.89 28 412 0 2 290 38 2000 1456 3.8 36 10 3 12 24% 8506 103397 21611 62%
c c  1.07 22 404 0 2 316 34 2502 1913 3.9 36 9 3 13 25% 8515 103366 21604 62%
c d  1.08 22 404 0 2 316 34 2502 1913 3.9 36 9 3 13 25% 8501 103366 21604 62%
c u  1.11 22 404 0 2 316 34 2502 1520 3.9 36 9 3 13 25% 8504 103366 21604 62%
c v  1.14 22 404 0 2 316 34 2502 1328 3.9 36 9 3 13 25% 8504 103366 21604 62%
c w  1.16 22 404 0 2 316 34 2502 1328 3.9 36 9 3 13 25% 8504 103366 21604 62%
c x  1.18 22 404 0 2 316 34 2502 1328 3.9 36 9 3 13 25% 8504 103364 21604 62%
c =  1.26 22 404 0 2 316 34 2502 1328 3.9 36 9 3 13 25% 8866 103364 21423 62%
c
c  seconds   switched   rate       size/glue tier1     binary          remaining
c         MB  reductions conflicts       size  tier2      irredundant
c           level restarts    redundant    glue    trail          variables
c
c d  1.26 22 404 0 2 316 34 2502 1326 3.9 36 9 3 13 25% 8502 103364 21423 62%
c f  1.31 22 404 0 2 316 34 2502 1326 3.9 36 9 3 13 25% 9175 102075 22039 64%
c u  1.35 22 404 0 2 316 34 2502 1294 3.9 36 9 3 13 25% 9175 102075 22039 64%
c v  1.38 22 404 0 2 316 34 2502 1193 3.9 36 9 3 13 25% 9175 102075 22039 64%
c w  1.43 27 404 0 2 316 34 2502 1190 3.9 36 9 3 13 25% 9175 102075 22039 64%
c =  1.51 27 404 0 2 316 34 2502 1190 3.9 36 9 3 13 25% 9607 102075 21823 63%
c d  1.52 27 404 0 2 316 34 2502 1187 3.9 36 9 3 13 25% 9118 102075 21823 63%
c f  1.57 27 404 0 2 316 34 2502 1187 3.9 36 9 3 13 25% 9494 101511 22011 64%
c -  1.75 27 389 0 3 356 30 3414 1683 3.8 33 9 2 12 25% 9503 101511 22011 64%
c -  2.09 27 420 0 4 440 28 5151 2811 3.9 31 8 3 12 25% 9541 101511 22011 64%
c -  2.96 27 352 0 5 742 30 7155 3796 4.6 39 9 2 11 28% 9613 101511 22011 64%
c c  3.08 27 352 0 5 768 29 7705 4286 4.6 38 8 2 11 28% 9625 101415 21980 63%
c d  3.08 27 352 0 5 768 29 7705 4274 4.6 38 8 2 11 28% 9563 101415 21980 63%
c u  3.10 27 352 0 5 768 29 7705 3573 4.6 38 8 2 11 28% 9569 101415 21980 63%
c v  3.13 27 352 0 5 768 29 7705 3008 4.6 38 8 2 11 28% 9570 101415 21980 63%
c w  3.15 27 352 0 5 768 29 7705 3008 4.6 38 8 2 11 28% 9570 101415 21980 63%
c x  3.18 27 352 0 5 768 29 7705 3008 4.6 38 8 2 11 28% 9570 101012 21980 63%
c =  3.30 27 352 0 5 768 29 7705 3008 4.6 38 8 2 11 28% 10450 101012 21540 62%
c d  3.30 27 352 0 5 768 29 7705 2992 4.6 38 8 2 11 28% 9449 101012 21540 62%
c t  3.31 27 352 0 5 768 29 7705 2992 4.6 38 8 2 11 28% 9444 101012 21540 62%
c
c  seconds   switched   rate       size/glue tier1     binary          remaining
c         MB  reductions conflicts       size  tier2       irredundant
c           level restarts    redundant    glue    trail          variables
c
c f  3.35 27 352 0 5 768 29 7705 2992 4.6 38 8 2 11 28% 11430 98031 22534 65%
c u  3.47 27 352 0 5 768 29 7705 2837 4.6 38 8 2 11 28% 11433 98031 22534 65%
c v  3.52 27 352 0 5 768 29 7705 2717 4.6 38 8 2 11 28% 11433 98031 22534 65%
c w  3.59 27 352 0 5 768 29 7705 2710 4.6 38 8 2 11 28% 11433 98031 22534 65%
c x  3.65 27 352 0 5 768 29 7705 2710 4.6 38 8 2 11 28% 11433 91775 22534 65%
c =  3.80 27 352 0 5 768 29 7705 2710 4.6 38 8 2 11 28% 11957 91771 22272 64%
c d  3.81 27 352 0 5 768 29 7705 2709 4.6 38 8 2 11 28% 11359 91771 22272 64%
c t  3.83 27 352 0 5 768 29 7705 2709 4.6 38 8 2 11 28% 11328 91771 22272 64%
c -  3.98 27 338 0 6 768 27 9395 3375 4.3 33 8 2 10 25% 11431 91771 22272 64%
c o  4.05 27 324 0 6 777 26 10004 3795 4.2 32 8 2 10 24% 11469 91771 22272 64%
c -  4.71 27 333 0 7 1011 27 11844 4737 4.3 33 8 2 9 25% 11499 91771 22272 64%
c s  4.86 27 335 0 7 1035 27 12505 5303 4.3 32 8 2 9 25% 11520 90872 22272 64%
c e  4.98 27 335 0 7 1035 27 12505 5303 4.3 32 8 2 9 25% 9988 91707 20845 60%
c 2  4.98 27 335 0 7 1035 27 12505 5303 4.3 32 8 2 9 25% 9987 91707 20845 60%
c s  4.99 27 335 0 7 1035 27 12505 5303 4.3 32 8 2 9 25% 9988 90841 20845 60%
c e  5.00 27 335 0 7 1035 27 12505 5303 4.3 32 8 2 9 25% 9919 90910 20825 60%
c ^  5.00 27 335 0 7 1035 27 12505 5303 4.3 32 8 2 9 25% 9919 90910 20825 60%
c -  5.80 27 328 0 8 1260 27 14492 5485 4.4 34 8 2 9 26% 9944 90910 20825 60%
c d  5.98 27 346 0 8 1295 27 15781 6637 4.3 33 8 2 9 26% 9809 90910 20727 60%
c u  6.02 27 346 0 8 1295 27 15781 5432 4.3 33 8 2 9 26% 9816 90910 20727 60%
c
c  seconds   switched    rate        size/glue tier1    binary         remaining
c         MB  reductions   conflicts       size  tier2     irredundant
c           level  restarts     redundant    glue   trail         variables
c
c v  6.08 27 346 0 8 1295 27 15781 4671 4.3 33 8 2 9 26% 9816 90910 20727 60%
c w  6.14 27 346 0 8 1295 27 15781 4657 4.3 33 8 2 9 26% 9816 90910 20727 60%
c x  6.18 27 346 0 8 1295 27 15781 4657 4.3 33 8 2 9 26% 9816 90096 20727 60%
c =  6.36 27 346 0 8 1295 27 15781 4657 4.3 33 8 2 9 26% 11448 90095 19911 57%
c d  6.37 27 346 0 8 1295 27 15781 4549 4.3 33 8 2 9 26% 9447 90095 19911 57%
c t  6.39 27 346 0 8 1295 27 15781 4549 4.3 33 8 2 9 26% 9432 90095 19911 57%
c f  6.45 27 346 0 8 1295 27 15781 4549 4.3 33 8 2 9 26% 9464 90031 19927 58%
c u  6.55 27 346 0 8 1295 27 15781 4227 4.3 33 8 2 9 26% 9465 90031 19927 58%
c v  6.58 27 346 0 8 1295 27 15781 4101 4.3 33 8 2 9 26% 9465 90031 19927 58%
c w  6.64 27 346 0 8 1295 27 15781 4068 4.3 33 8 2 9 26% 9465 90031 19927 58%
c x  6.70 27 346 0 8 1295 27 15781 4068 4.3 33 8 2 9 26% 9465 89391 19927 58%
c =  6.89 27 346 0 8 1295 27 15781 4068 4.3 33 8 2 9 26% 10773 89385 19273 56%
c d  6.90 27 346 0 8 1295 27 15781 4047 4.3 33 8 2 9 26% 9209 89385 19273 56%
c t  6.92 27 346 0 8 1295 27 15781 4047 4.3 33 8 2 9 26% 9207 89385 19273 56%
c -  7.43 27 337 0 9 1427 27 17320 4757 4.3 33 8 2 9 27% 9217 89385 19273 56%
c o  8.04 27 320 0 9 1564 26 20039 7104 4.1 31 8 2 9 27% 9265 89385 19273 56%
c -  8.19 27 319 0 10 1618 26 20320 6410 4.2 32 8 2 9 27% 9266 89385 19273 56%
c -  8.88 27 303 0 11 1822 26 23482 7978 4.1 31 8 2 9 26% 9320 89385 19273 56%
c s  9.40 27 301 0 11 1994 26 25006 9364 4.2 33 8 2 9 26% 9343 88203 19273 56%
c e  9.54 27 301 0 11 1994 26 25006 9364 4.2 33 8 2 9 26% 8130 91495 16599 48%
c
c  seconds   switched     rate        size/glue tier1    binary         remaining
c         MB   reductions   conflicts       size  tier2     irredundant
c           level   restarts     redundant    glue   trail         variables
c
c s  9.57 27 301 0 11 1994 26 25006 9364 4.2 33 8 2 9 26% 8130 87807 16599 48%
c e  9.62 27 301 0 11 1994 26 25006 9364 4.2 33 8 2 9 26% 8120 87835 16575 48%
c ^  9.62 27 301 0 11 1994 26 25006 9364 4.2 33 8 2 9 26% 8120 87835 16575 48%
c - 10.13 27 289 0 12 2073 25 26798 7832 4.0 31 8 2 8 27% 8122 87835 16575 48%
c d 10.16 27 288 0 12 2078 25 26908 7933 4.0 31 8 2 8 27% 8048 87835 16526 48%
c u 10.21 27 288 0 12 2078 25 26908 6724 4.0 31 8 2 8 27% 8065 87835 16526 48%
c v 10.26 27 288 0 12 2078 25 26908 5677 4.0 31 8 2 8 27% 8065 87835 16526 48%
c w 10.27 27 288 0 12 2078 25 26908 5673 4.0 31 8 2 8 27% 8065 87835 16526 48%
c x 10.38 27 288 0 12 2078 25 26908 5673 4.0 31 8 2 8 27% 8066 85035 16526 48%
c = 10.65 27 288 0 12 2078 25 26908 5673 4.0 31 8 2 8 27% 10526 85027 15296 44%
c d 10.66 27 288 0 12 2078 25 26908 5502 4.0 31 8 2 8 27% 7949 85027 15296 44%
c t 10.68 27 288 0 12 2078 25 26908 5502 4.0 31 8 2 8 27% 7938 85027 15296 44%
c f 10.76 27 288 0 12 2078 25 26908 5502 4.0 31 8 2 8 27% 7942 84967 15310 44%
c u 10.80 27 288 0 12 2078 25 26908 4942 4.0 31 8 2 8 27% 7943 84967 15310 44%
c v 10.83 27 288 0 12 2078 25 26908 4791 4.0 31 8 2 8 27% 7943 84967 15310 44%
c w 10.84 27 288 0 12 2078 25 26908 4790 4.0 31 8 2 8 27% 7943 84967 15310 44%
c x 10.96 27 288 0 12 2078 25 26908 4788 4.0 31 8 2 8 27% 7943 76246 15310 44%
c = 11.21 27 288 0 12 2078 25 26908 4788 4.0 31 8 2 8 27% 8199 76246 15182 44%
c d 11.22 27 288 0 12 2078 25 26908 4783 4.0 31 8 2 8 27% 7939 76246 15181 44%
c - 11.85 27 277 0 13 2240 24 30265 6779 3.9 30 8 2 8 28% 7959 76245 15181 44%
c
c  seconds   switched     rate        size/glue tier1    binary         remaining
c         MB   reductions   conflicts       size  tier2     irredundant
c           level   restarts     redundant    glue   trail         variables
c
c - 12.31 27 278 0 14 2331 23 33871 8731 3.7 28 8 2 8 27% 7980 76245 15181 44%
c - 12.74 27 280 0 15 2478 22 37613 10365 3.6 27 7 2 8 27% 8017 76244 15181 44%
c o 13.34 27 271 0 15 2711 22 40086 12590 3.6 27 7 2 8 27% 8031 76241 15181 44%
c c 13.77 27 267 0 15 2838 22 41248 13692 3.7 27 7 2 8 27% 8071 76006 15133 44%
c d 13.78 27 267 0 15 2838 22 41248 13545 3.7 27 7 2 8 27% 7948 76006 15115 44%
c u 13.84 27 267 0 15 2838 22 41248 11596 3.7 27 7 2 8 27% 7965 76006 15115 44%
c v 13.91 27 267 0 15 2838 22 41248 10817 3.7 27 7 2 8 27% 7965 76006 15115 44%
c w 13.96 27 267 0 15 2838 22 41248 10817 3.7 27 7 2 8 27% 7965 76006 15115 44%
c x 14.03 27 267 0 15 2838 22 41248 10817 3.7 27 7 2 8 27% 7965 75498 15115 44%
c = 14.26 27 267 0 15 2838 22 41248 10817 3.7 27 7 2 8 27% 9185 75498 14505 42%
c d 14.27 27 267 0 15 2838 22 41248 10335 3.7 27 7 2 8 27% 7850 75498 14505 42%
c t 14.29 27 267 0 15 2838 22 41248 10335 3.7 27 7 2 8 27% 7846 75498 14505 42%
c u 14.39 27 267 0 15 2838 22 41248 9677 3.7 27 7 2 8 27% 7846 75498 14505 42%
c v 14.45 27 267 0 15 2838 22 41248 8881 3.7 27 7 2 8 27% 7847 75498 14505 42%
c w 14.53 27 267 0 15 2838 22 41248 8881 3.7 27 7 2 8 27% 7847 75498 14505 42%
c x 14.61 27 267 0 15 2838 22 41248 8879 3.7 27 7 2 8 27% 7847 72125 14505 42%
c = 14.82 27 267 0 15 2838 22 41248 8879 3.7 27 7 2 8 27% 7855 72125 14501 42%
c d 14.83 27 267 0 15 2838 22 41248 8879 3.7 27 7 2 8 27% 7846 72125 14501 42%
c - 14.92 27 266 0 16 2852 22 41486 7730 3.6 27 7 2 7 27% 7847 72125 14501 42%
c - 15.51 27 265 0 17 3067 22 45486 9949 3.6 27 7 2 7 27% 7864 72124 14501 42%
c
c  seconds   switched     rate         size/glue tier1    binary         remaining
c         MB   reductions   conflicts        size  tier2     irredundant
c           level   restarts      redundant    glue   trail         variables
c
c - 16.31 27 256 0 18 3370 22 49609 12038 3.6 27 7 2 7 26% 7901 72123 14501 42%
c s 16.60 27 257 0 18 3470 22 52107 14259 3.5 26 7 2 7 26% 7910 71425 14501 42%
c e 16.70 27 257 0 18 3470 22 52107 14259 3.5 26 7 2 7 26% 6871 73340 13585 39%
c s 16.71 27 257 0 18 3470 22 52107 14259 3.5 26 7 2 7 26% 6871 72800 13585 39%
c e 16.72 27 257 0 18 3470 22 52107 14259 3.5 26 7 2 7 26% 6869 72815 13575 39%
c ^ 16.72 27 257 0 18 3470 22 52107 14259 3.5 26 7 2 7 26% 6869 72815 13575 39%
c - 17.07 27 251 0 19 3627 22 53851 12653 3.5 26 7 2 7 26% 6874 72815 13575 39%
c - 17.75 27 239 0 20 3894 21 58209 14461 3.4 25 7 2 7 26% 6896 72815 13575 39%
c c 17.94 27 240 0 20 3959 21 58905 15119 3.4 25 7 2 7 26% 6931 72640 13550 39%
c d 17.94 27 240 0 20 3959 21 58905 15061 3.4 25 7 2 7 26% 6881 72640 13550 39%
c u 18.01 27 240 0 20 3959 21 58905 12701 3.4 25 7 2 7 26% 6901 72640 13550 39%
c v 18.08 27 240 0 20 3959 21 58905 11117 3.4 25 7 2 7 26% 6906 72640 13550 39%
c w 18.12 27 240 0 20 3959 21 58905 11110 3.4 25 7 2 7 26% 6906 72640 13550 39%
c x 18.19 27 240 0 20 3959 21 58905 11110 3.4 25 7 2 7 26% 6906 72362 13550 39%
c d 18.48 27 240 0 20 3959 21 58905 11104 3.4 25 7 2 7 26% 6896 72362 13545 39%
c t 18.49 27 240 0 20 3959 21 58905 11104 3.4 25 7 2 7 26% 6894 72362 13545 39%
c f 18.54 27 240 0 20 3959 21 58905 11104 3.4 25 7 2 7 26% 6903 72323 13551 39%
c c 18.60 27 240 0 20 3959 21 58905 11093 3.4 25 7 2 7 26% 6908 72297 13548 39%
c d 18.61 27 240 0 20 3959 21 58905 11093 3.4 25 7 2 7 26% 6902 72297 13548 39%
c u 18.67 27 240 0 20 3959 21 58905 10612 3.4 25 7 2 7 26% 6910 72297 13548 39%
c
c  seconds   switched     rate         size/glue tier1    binary         remaining
c         MB   reductions   conflicts        size  tier2     irredundant
c           level   restarts      redundant    glue   trail         variables
c
c v 18.72 27 240 0 20 3959 21 58905 10334 3.4 25 7 2 7 26% 6910 72297 13548 39%
c w 18.77 27 240 0 20 3959 21 58905 10308 3.4 25 7 2 7 26% 6910 72297 13548 39%
c x 18.87 27 240 0 20 3959 21 58905 10308 3.4 25 7 2 7 26% 6910 72226 13548 39%
c d 18.87 27 240 0 20 3959 21 58905 10306 3.4 25 7 2 7 26% 6904 72226 13545 39%
c - 19.58 27 232 0 21 4166 20 62681 12163 3.3 24 7 2 7 27% 6917 72225 13545 39%
c - 20.61 27 222 0 22 4573 20 67263 14501 3.2 24 7 2 7 27% 6940 72225 13545 39%
c o 21.21 27 216 0 22 4823 20 70091 17148 3.2 23 7 2 7 27% 6951 72225 13545 39%
c - 21.82 27 214 0 23 5047 20 71953 16565 3.2 24 7 2 6 27% 6968 72224 13545 39%
c - 22.67 27 208 0 24 5377 20 76748 18284 3.1 23 7 2 6 26% 7031 72224 13545 39%
c d 23.36 27 207 0 24 5642 20 79996 20864 3.1 23 7 2 6 26% 6962 72224 13489 39%
c u 23.48 27 207 0 24 5642 20 79996 17660 3.1 23 7 2 6 26% 7006 72224 13489 39%
c v 23.60 27 207 0 24 5642 20 79996 15570 3.1 23 7 2 6 26% 7011 72224 13489 39%
c w 23.80 27 207 0 24 5642 20 79996 15551 3.1 23 7 2 6 26% 7011 72224 13489 39%
c = 24.08 27 207 0 24 5642 20 79996 15551 3.1 23 7 2 6 26% 7549 72222 13220 38%
c d 24.09 27 207 0 24 5642 20 79996 15170 3.1 23 7 2 6 26% 6930 72222 13216 38%
c t 24.11 27 207 0 24 5642 20 79996 15170 3.1 23 7 2 6 26% 6928 72222 13216 38%
c c 24.18 27 207 0 24 5642 20 79996 15170 3.1 23 7 2 6 26% 6952 72096 13200 38%
c d 24.19 27 207 0 24 5642 20 79996 15153 3.1 23 7 2 6 26% 6920 72096 13200 38%
c u 24.28 27 207 0 24 5642 20 79996 14172 3.1 23 7 2 6 26% 6929 72096 13200 38%
c v 24.35 27 207 0 24 5642 20 79996 13746 3.1 23 7 2 6 26% 6932 72096 13200 38%
c
c  seconds   switched     rate         size/glue tier1    binary         remaining
c         MB   reductions   conflicts        size  tier2     irredundant
c           level   restarts      redundant    glue   trail         variables
c
c w 24.48 27 207 0 24 5642 20 79996 13570 3.1 23 7 2 6 26% 6932 72096 13200 38%
c x 24.56 27 207 0 24 5642 20 79996 13570 3.1 23 7 2 6 26% 6932 70840 13200 38%
c = 24.98 27 207 0 24 5642 20 79996 13570 3.1 23 7 2 6 26% 7460 70821 12935 37%
c d 24.99 27 207 0 24 5642 20 79996 13353 3.1 23 7 2 6 26% 6894 70821 12935 37%
c - 25.13 27 204 0 25 5682 20 81646 11634 3.1 23 7 1 6 26% 6901 70821 12935 37%
c - 25.79 27 197 0 26 5940 19 86646 13376 3.1 22 7 1 6 26% 6937 70820 12935 37%
c - 26.70 27 192 0 27 6350 19 91747 15200 3.0 22 7 1 6 26% 6973 70820 12935 37%
c s 27.53 27 187 0 27 6784 19 95833 18854 3.0 22 7 1 6 26% 6988 69223 12935 37%
c e 27.64 27 187 0 27 6784 19 95833 18854 3.0 22 7 1 6 26% 4840 74939 11735 34%
c s 27.66 27 187 0 27 6784 19 95833 18854 3.0 22 7 1 6 26% 4840 74701 11735 34%
c e 27.68 27 187 0 27 6784 19 95833 18854 3.0 22 7 1 6 26% 4836 74753 11699 34%
c ^ 27.68 27 187 0 27 6784 19 95833 18854 3.0 22 7 1 6 26% 4836 74753 11699 34%
c - 27.82 27 186 0 28 6852 19 96943 13637 3.0 22 7 1 6 26% 4842 74752 11699 34%
c - 28.37 27 180 0 29 7101 19 102234 15163 2.9 21 7 1 6 25% 4913 74743 11699 34%
c c 28.93 27 179 0 29 7345 19 104650 17315 2.9 21 7 1 6 25% 4999 74318 11619 34%
c d 28.93 27 179 0 29 7345 19 104650 16862 2.9 21 7 1 6 25% 4839 74318 11619 34%
c u 28.99 27 179 0 29 7345 19 104650 14963 2.9 21 7 1 6 25% 4857 74318 11619 34%
c v 29.09 27 179 0 29 7345 19 104650 12270 2.9 21 7 1 6 25% 4870 74318 11619 34%
c w 29.20 27 179 0 29 7345 19 104650 12240 2.9 21 7 1 6 25% 4870 74318 11619 34%
c x 29.32 27 179 0 29 7345 19 104650 12238 2.9 21 7 1 6 25% 4870 72761 11619 34%
c
c  seconds   switched     rate          size/glue tier1    binary         remaining
c         MB   reductions   conflicts         size  tier2     irredundant
c           level   restarts       redundant    glue   trail         variables
c
c = 29.71 27 179 0 29 7345 19 104650 12238 2.9 21 7 1 6 25% 5338 72761 11385 33%
c d 29.72 27 179 0 29 7345 19 104650 11872 2.9 21 7 1 6 25% 4802 72761 11385 33%
c u 29.90 27 179 0 29 7345 19 104650 11257 2.9 21 7 1 6 25% 4804 72761 11385 33%
c v 29.97 27 179 0 29 7345 19 104650 10671 2.9 21 7 1 6 25% 4806 72761 11385 33%
c w 30.11 27 179 0 29 7345 19 104650 10552 2.9 21 7 1 6 25% 4806 72761 11385 33%
c x 30.20 27 179 0 29 7345 19 104650 10552 2.9 21 7 1 6 25% 4806 72625 11385 33%
c = 30.59 27 179 0 29 7345 19 104650 10552 2.9 21 7 1 6 25% 4940 72625 11318 33%
c d 30.60 27 179 0 29 7345 19 104650 10519 2.9 21 7 1 6 25% 4794 72625 11318 33%
c - 31.27 27 177 0 30 7621 19 107619 10997 2.9 21 7 1 6 25% 4808 72622 11318 33%
c o 31.72 27 175 0 30 7803 19 110232 13425 2.8 21 7 1 6 25% 4809 72622 11318 33%
c - 32.35 27 173 0 31 8130 19 113096 13721 2.8 21 7 1 6 26% 4811 72621 11318 33%
c - 33.51 27 171 0 32 8672 19 118663 15904 2.8 21 7 1 6 26% 4833 72619 11318 33%
c - 34.54 27 167 0 33 9168 19 124319 17557 2.8 21 7 1 6 26% 4863 72619 11318 33%
c - 35.95 27 168 0 34 9902 19 130064 19027 2.8 21 8 1 5 26% 4895 72618 11318 33%
c d 36.56 29 168 0 34 10189 19 132938 21310 2.8 21 8 1 5 26% 4838 72616 11276 33%
c u 36.63 29 168 0 34 10189 19 132938 18997 2.8 21 8 1 5 26% 4848 72616 11276 33%
c v 36.74 29 168 0 34 10189 19 132938 15599 2.8 21 8 1 5 26% 4856 72616 11276 33%
c w 37.05 29 168 0 34 10189 19 132938 15328 2.8 21 8 1 5 26% 4856 72616 11276 33%
c = 37.64 29 168 0 34 10189 19 132938 15328 2.8 21 8 1 5 26% 4942 72616 11233 32%
c d 37.65 29 168 0 34 10189 19 132938 15217 2.8 21 8 1 5 26% 4824 72616 11228 32%
c
c  seconds   switched      rate          size/glue tier1    binary         remaining
c         MB   reductions    conflicts         size  tier2     irredundant
c           level   restarts        redundant    glue   trail         variables
c
c t 37.67 29 168 0 34 10189 19 132938 15217 2.8 21 8 1 5 26% 4820 72616 11228 32%
c c 37.72 29 168 0 34 10189 19 132938 15217 2.8 21 8 1 5 26% 4843 72501 11214 32%
c d 37.73 29 168 0 34 10189 19 132938 15179 2.8 21 8 1 5 26% 4815 72501 11214 32%
c u 37.79 29 168 0 34 10189 19 132938 14616 2.8 21 8 1 5 26% 4816 72501 11214 32%
c v 37.86 29 168 0 34 10189 19 132938 13932 2.8 21 8 1 5 26% 4817 72501 11214 32%
c w 38.09 29 168 0 34 10189 19 132938 13726 2.8 21 8 1 5 26% 4817 72501 11214 32%
c x 38.19 29 168 0 34 10189 19 132938 13726 2.8 21 8 1 5 26% 4817 72476 11214 32%
c = 38.79 29 168 0 34 10189 19 132938 13726 2.8 21 8 1 5 26% 4847 72476 11199 32%
c d 38.79 29 168 0 34 10189 19 132938 13703 2.8 21 8 1 5 26% 4812 72476 11199 32%
c - 39.38 29 165 0 35 10394 19 135895 13976 2.8 21 8 1 5 26% 4815 72475 11199 32%
c - 40.85 29 161 0 36 11026 19 141812 16680 2.8 22 8 1 5 27% 4825 72474 11199 32%
c - 41.91 29 159 0 37 11721 20 147814 18954 2.8 22 8 1 5 27% 4847 72473 11199 32%
c - 42.94 29 157 0 38 12377 20 153896 20661 2.8 23 8 1 5 27% 4870 72473 11199 32%
c s 43.71 29 156 0 38 12839 20 157968 24420 2.9 23 8 1 5 28% 4886 70872 11199 32%
c e 43.85 29 156 0 38 12839 20 157968 24420 2.9 23 8 1 5 28% 2567 82414 9632 28%
c s 43.89 29 156 0 38 12839 20 157968 24420 2.9 23 8 1 5 28% 2567 81863 9632 28%
c e 43.90 29 156 0 38 12839 20 157968 24420 2.9 23 8 1 5 28% 2567 81894 9622 28%
c ^ 43.90 29 156 0 38 12839 20 157968 24420 2.9 23 8 1 5 28% 2567 81894 9622 28%
c - 44.42 29 155 0 39 13064 20 160060 15832 2.8 23 8 1 5 28% 2570 81894 9622 28%
c o 44.45 29 155 0 39 13066 20 160285 16032 2.8 23 8 1 5 28% 2570 81894 9622 28%
c
c  seconds   switched      rate          size/glue tier1    binary        remaining
c         MB   reductions    conflicts         size  tier2     irredundant
c           level   restarts        redundant    glue   trail        variables
c
c c 45.37 29 153 0 39 13548 20 164960 20412 2.8 23 8 1 5 28% 2596 81770 9605 28%
c d 45.38 29 153 0 39 13548 20 164960 20384 2.8 23 8 1 5 28% 2562 81770 9605 28%
c u 45.43 29 153 0 39 13548 20 164960 18129 2.8 23 8 1 5 28% 2566 81770 9605 28%
c v 45.51 29 153 0 39 13548 20 164960 14862 2.8 23 8 1 5 28% 2567 81770 9605 28%
c w 45.79 29 153 0 39 13548 20 164960 14430 2.8 23 8 1 5 28% 2567 81770 9605 28%
c = 46.38 29 153 0 39 13548 20 164960 14430 2.8 23 8 1 5 28% 2615 81770 9581 28%
c d 46.38 29 153 0 39 13548 20 164960 14373 2.8 23 8 1 5 28% 2553 81770 9579 28%
c t 46.39 29 153 0 39 13548 20 164960 14373 2.8 23 8 1 5 28% 2546 81770 9579 28%
c f 46.50 29 153 0 39 13548 20 164960 14373 2.8 23 8 1 5 28% 2564 81376 9599 28%
c c 46.53 29 153 0 39 13548 20 164960 14373 2.8 23 8 1 5 28% 2566 81368 9598 28%
c d 46.54 29 153 0 39 13548 20 164960 14373 2.8 23 8 1 5 28% 2564 81368 9598 28%
c u 46.57 29 153 0 39 13548 20 164960 13871 2.8 23 8 1 5 28% 2567 81368 9598 28%
c v 46.61 29 153 0 39 13548 20 164960 13315 2.8 23 8 1 5 28% 2569 81368 9598 28%
c w 46.88 29 153 0 39 13548 20 164960 12873 2.8 23 8 1 5 28% 2569 81368 9598 28%
c = 47.51 29 153 0 39 13548 20 164960 12873 2.8 23 8 1 5 28% 2585 81366 9590 28%
c d 47.52 29 153 0 39 13548 20 164960 12866 2.8 23 8 1 5 28% 2567 81366 9590 28%
c t 47.53 29 153 0 39 13548 20 164960 12866 2.8 23 8 1 5 28% 2566 81366 9590 28%
c - 47.73 29 153 0 40 13640 20 166310 11953 2.8 23 8 1 5 28% 2569 81366 9590 28%
c - 48.59 29 150 0 41 14135 20 172634 14929 2.8 23 8 1 5 28% 2571 81365 9590 28%
c - 49.42 29 147 0 42 14686 19 179039 17199 2.7 23 8 1 5 28% 2588 81365 9590 28%
c
c  seconds   switched      rate          size/glue tier1    binary        remaining
c         MB   reductions    conflicts         size  tier2     irredundant
c           level   restarts        redundant    glue   trail        variables
c
c i 49.74 29 145 0 42 14892 19 182629 20451 2.7 23 8 1 5 28% 2596 81365 9589 28%
c i 49.76 29 145 0 42 14906 19 182763 20559 2.7 23 8 1 5 28% 2600 81364 9588 28%
c - 50.10 29 144 0 43 15112 19 185519 18598 2.7 23 8 1 5 28% 2600 81364 9588 28%
c i 50.81 29 142 0 43 15610 19 190371 23045 2.7 23 8 1 5 28% 2609 81361 9586 28%
c - 51.01 29 141 0 44 15737 19 192079 19589 2.7 23 8 1 5 28% 2611 81361 9586 28%
c - 51.81 29 139 0 45 16300 18 198712 20746 2.7 22 8 1 5 28% 2641 81360 9586 28%
c d 52.12 29 138 0 45 16513 18 200777 22572 2.7 22 8 1 5 27% 2596 81325 9558 28%
c d 52.13 29 138 0 45 16513 18 200777 22568 2.7 22 8 1 5 27% 2586 81325 9553 28%
c u 52.17 29 138 0 45 16513 18 200777 20634 2.7 22 8 1 5 27% 2594 81325 9553 28%
c v 52.26 29 138 0 45 16513 18 200777 16266 2.7 22 8 1 5 27% 2597 81325 9553 28%
c w 52.35 29 138 0 45 16513 18 200777 16137 2.7 22 8 1 5 27% 2597 81325 9553 28%
c x 52.46 29 138 0 45 16513 18 200777 16113 2.7 22 8 1 5 27% 2597 79715 9553 28%
c = 52.99 29 138 0 45 16513 18 200777 16113 2.7 22 8 1 5 27% 2617 79713 9543 28%
c d 53.00 29 138 0 45 16513 18 200777 16065 2.7 22 8 1 5 27% 2578 79713 9536 28%
c t 53.00 29 138 0 45 16513 18 200777 16065 2.7 22 8 1 5 27% 2574 79713 9536 28%
c c 53.05 29 138 0 45 16513 18 200777 16049 2.7 22 8 1 5 27% 2582 79681 9532 28%
c d 53.06 29 138 0 45 16513 18 200777 16049 2.7 22 8 1 5 27% 2574 79681 9532 28%
c u 53.10 29 138 0 45 16513 18 200777 15579 2.7 22 8 1 5 27% 2577 79681 9532 28%
c v 53.16 29 138 0 45 16513 18 200777 14840 2.7 22 8 1 5 27% 2579 79681 9532 28%
c w 53.26 29 138 0 45 16513 18 200777 14418 2.7 22 8 1 5 27% 2579 79681 9532 28%
c
c  seconds   switched      rate          size/glue tier1    binary        remaining
c         MB   reductions    conflicts         size  tier2     irredundant
c           level   restarts        redundant    glue   trail        variables
c
c = 53.81 29 138 0 45 16513 18 200777 14418 2.7 22 8 1 5 27% 2589 79681 9527 27%
c d 53.82 29 138 0 45 16513 18 200777 14408 2.7 22 8 1 5 27% 2576 79681 9527 27%
c - 54.29 29 137 0 46 16781 18 205420 15353 2.6 22 8 1 5 28% 2582 79679 9527 27%
c i 54.53 29 136 0 46 16863 18 207542 17312 2.6 22 8 1 5 28% 2586 79678 9526 27%
c - 55.20 29 134 0 47 17258 18 212202 18038 2.6 22 8 1 5 28% 2590 79677 9526 27%
c i 55.95 29 133 0 47 17585 18 216083 21639 2.6 22 8 1 5 27% 2592 79677 9524 27%
c i 56.35 29 132 0 47 17737 18 217870 23241 2.5 22 8 1 5 28% 2598 79677 9523 27%
c - 56.60 29 132 0 48 17849 18 219061 19857 2.5 22 8 1 5 27% 2598 79677 9523 27%
c o 56.81 29 131 0 48 17935 17 220286 21003 2.5 22 8 1 5 27% 2599 79677 9523 27%
c - 57.47 29 129 0 49 18438 17 225989 21328 2.5 21 9 1 5 27% 2602 79676 9523 27%
c i 57.56 29 129 0 49 18510 17 226683 21941 2.5 21 9 1 5 27% 2608 79676 9521 27%
c i 57.81 29 128 0 49 18687 17 229200 24316 2.5 21 9 1 5 27% 2609 79675 9520 27%
c i 58.10 29 127 0 49 18888 17 231512 26460 2.5 21 9 1 5 27% 2614 79675 9515 27%
c - 58.23 29 126 0 50 18969 17 232991 22349 2.5 21 9 1 5 27% 2614 79675 9515 27%
c i 58.68 29 125 0 50 19274 17 237087 26151 2.5 21 9 1 5 27% 2621 79675 9513 27%
c - 58.97 29 124 0 51 19486 17 240064 23354 2.5 21 9 1 5 27% 2624 79675 9513 27%
c s 58.99 29 124 0 51 19486 17 240147 23434 2.5 21 9 1 5 27% 2624 79419 9513 27%
c e 59.15 29 124 0 51 19486 17 240147 23434 2.5 21 9 1 5 27% 176 103271 7448 21%
c s 59.21 29 124 0 51 19486 17 240147 23434 2.5 21 9 1 5 27% 176 101446 7448 21%
c e 59.25 29 124 0 51 19486 17 240147 23434 2.5 21 9 1 5 27% 168 101776 7415 21%
c
c  seconds   switched      rate          size/glue tier1   binary         remaining
c         MB   reductions    conflicts         size  tier2    irredundant
c           level   restarts        redundant    glue   trail        variables
c
c ! 59.25 29 124 0 51 19486 17 240147 23434 2.5 21 9 1 5 27% 168 101776 7415 21%
c u 59.32 29 124 0 51 19500 16 240479 12217 2.5 21 9 1 5 27% 174 101776 7414 21%
c v 59.37 29 124 0 51 19500 16 240479 9698 2.5 21 9 1 5 27% 178 101776 7414 21%
c w 59.39 29 124 0 51 19500 16 240479 9554 2.5 21 9 1 5 27% 178 101776 7414 21%
c x 59.53 29 124 0 51 19500 16 240479 9500 2.5 21 9 1 5 27% 180 100654 7414 21%
c = 60.00 29 124 0 51 19500 16 240479 9500 2.5 21 9 1 5 27% 210 100514 7393 21%
c d 60.01 29 124 0 51 19500 16 240479 9447 2.5 21 9 1 5 27% 181 100473 7392 21%
c d 60.01 29 124 0 51 19500 16 240479 9447 2.5 21 9 1 5 27% 173 100457 7388 21%
c t 60.02 29 124 0 51 19500 16 240479 9447 2.5 21 9 1 5 27% 169 100457 7388 21%
c f 60.15 29 124 0 51 19500 16 240479 9447 2.5 21 9 1 5 27% 343 96224 7475 22%
c u 60.18 29 124 0 51 19500 16 240479 9256 2.5 21 9 1 5 27% 350 96224 7475 22%
c v 60.21 29 124 0 51 19500 16 240479 8934 2.5 21 9 1 5 27% 357 96224 7467 22%
c w 60.23 29 124 0 51 19500 16 240479 8906 2.5 21 9 1 5 27% 357 96224 7467 22%
c x 60.40 29 124 0 51 19500 16 240479 8849 2.5 21 9 1 5 27% 383 94422 7467 22%
c = 60.90 29 124 0 51 19500 16 240479 8849 2.5 21 9 1 5 27% 409 94402 7449 21%
c d 60.91 29 124 0 51 19500 16 240479 8768 2.5 21 9 1 5 27% 354 94402 7448 21%
c d 60.91 29 124 0 51 19500 16 240479 8768 2.5 21 9 1 5 27% 352 94397 7447 21%
c t 60.91 29 124 0 51 19500 16 240479 8768 2.5 21 9 1 5 27% 348 94397 7447 21%
c f 61.00 29 124 0 51 19500 16 240479 8768 2.5 21 9 1 5 27% 878 93377 7467 22%
c i 61.01 29 124 0 51 19500 16 240479 8768 2.5 21 9 1 5 27% 878 93377 7467 22%
c
c  seconds   switched      rate         size/glue tier1   binary        remaining
c         MB   reductions    conflicts        size  tier2    irredundant
c           level   restarts       redundant    glue   trail       variables
c
c i 61.02 29 124 0 51 19511 16 240731 8997 2.5 21 9 1 5 27% 880 93377 7465 22%
c i 61.03 29 123 0 51 19517 16 240927 9136 2.5 21 9 1 5 27% 884 93371 7464 22%
c i 61.04 29 123 0 51 19531 16 241868 9820 2.5 21 9 1 5 27% 891 93368 7463 22%
c i 61.05 29 122 0 51 19539 16 242348 10125 2.4 21 9 1 5 27% 898 93367 7462 22%
c i 61.05 29 122 0 51 19541 16 242477 10215 2.4 21 9 1 5 27% 904 93367 7458 22%
c } 61.05 29 122 0 51 19541 16 242479 10215 2.4 21 9 1 5 27% 904 93367 7441 21%
c 0 61.05 29 122 0 51 19541 16 242479 10215 2.4 21 9 1 5 27% 904 93367 7441 21%
c
c ---- [ result ] ------------------------------------------------------------
c
s UNSATISFIABLE
c
c ---- [ profiling ] ---------------------------------------------------------
c
c          42.47   69.56 %  search
c          42.47   69.56 %  focused
c          18.27   29.93 %  simplify
c          17.21   28.19 %  probe
c           8.06   13.20 %  sweep
c           6.41   10.49 %  vivify
c           1.22    2.00 %  eliminate
c           1.07    1.75 %  factor
c           0.76    1.25 %  congruence
c           0.68    1.12 %  substitute
c           0.30    0.49 %  reduce
c           0.26    0.43 %  preprocess
c           0.23    0.38 %  subsume
c           0.16    0.26 %  transitive
c           0.10    0.16 %  fastel
c           0.08    0.13 %  backbone
c           0.03    0.05 %  lucky
c           0.02    0.03 %  parse
c =============================================
c          61.05  100.00 %  total
c
c ---- [ statistics ] --------------------------------------------------------
c
c chronological:                         4974                2 %  conflicts
c conflicts:                           242479             3971.73 per second
c congruent:                             3698               11 %  variables
c decisions:                          4168835               17.19 per conflict
c eliminated:                           21001               61 %  variables
c factored:                              3638               10 %  variables
c fast_eliminated:                      11019               52 %  eliminated
c fast_subsumed:                           53                0 %  per subsumed
c iterations:                              16                0 %  variables
c propagations:                     182761246          2993573    per second
c reductions:                              51             4754    interval
c reordered:                                7            34640    interval
c restarts:                             19541               12    interval
c strengthened:                          8390                0 %  checks
c substituted:                           9789               28 %  variables
c subsumed:                             13922                0 %  checks
c switched:                                 0                0    interval
c vivified:                            104789               14 %  checks
c
c ---- [ glue usage ] --------------------------------------------------------
c
c focused glue 1 used 417668 clauses 59.37% accumulated 59.37% tier1
c focused glue 2 used 134651 clauses 19.14% accumulated 78.51%
c focused glue 3 used  43529 clauses  6.19% accumulated 84.69%
c focused glue 4 used  25451 clauses  3.62% accumulated 88.31%
c focused glue 5 used  16754 clauses  2.38% accumulated 90.69% tier2
c
c ---- [ resources ] ---------------------------------------------------------
c
c maximum-resident-set-size:         29917184 bytes         29 MB
c process-time:                          1m 1s              61.05 seconds
c
c ---- [ shutting down ] -----------------------------------------------------
c
c exit 20
